input/02.dzn
num_servers = 4;
sid = [0, 1, 2, 3];
scpu = [6, 7, 8, 7];
sram = [6, 8, 6, 10];

num_vms = 8;
vjob = [0, 0, 1, 2, 2, 2, 3, 3];
vindex = [0, 1, 0, 0, 1, 2, 0, 1];
vcpu = [1, 2, 3, 1, 1, 1, 3, 1];
vram = [2, 1, 3, 1, 4, 2, 2, 3];
vac = [true, true, false, true, true, false, true, true];
