input/02.in
4
0 5 2
1 4 1
2 7 3
3 8 5
8
